self-compositions/words_1/words_682_SAT.qaiger
aag 32 16 0 1 16
12
18
32
16
10
28
24
30
2
20
14
26
22
8
6
4
64
34 20 8
36 22 10
38 37 35
40 18 6
42 41 38
44 31 29
46 45 16
48 24 12
50 26 14
52 51 49
54 52 47
56 54 42
58 32 17
60 59 57
62 58 56
64 63 61
i0 1 x[5]
i1 2 y[0]
i2 2 y[7]
i3 1 x[7]
i4 1 x[4]
i5 2 y[5]
i6 2 y[3]
i7 2 y[6]
i8 1 x[0]
i9 2 y[1]
i10 1 x[6]
i11 2 y[4]
i12 2 y[2]
i13 1 x[3]
i14 1 x[2]
i15 1 x[1]
o0 bv[0]
c
simplified
  >
    1
    and
      subtract
        >> 2
          1 x
        reverse
          1
      2 y
