self-compositions/words_1/words_682_SAT.qaiger.qdimacs
p cnf 32 49
a 1 2 3 4 5 6 7 8 0
e 9 10 11 12 13 14 15 16 17 18 19 20 21 22 23 24 25 26 27 28 29 30 31 32 0
-10 -4 17 0
10 -17 0
4 -17 0
-11 -5 18 0
11 -18 0
5 -18 0
18 17 19 0
-18 -19 0
-17 -19 0
-9 -3 20 0
9 -20 0
3 -20 0
20 -19 21 0
-20 -21 0
19 -21 0
15 14 22 0
-15 -22 0
-14 -22 0
22 -8 23 0
-22 -23 0
8 -23 0
-12 -6 24 0
12 -24 0
6 -24 0
-13 -7 25 0
13 -25 0
7 -25 0
25 24 26 0
-25 -26 0
-24 -26 0
-26 23 27 0
26 -27 0
-23 -27 0
-27 -21 28 0
27 -28 0
21 -28 0
-16 8 29 0
16 -29 0
-8 -29 0
29 28 30 0
-29 -30 0
-28 -30 0
-29 -28 31 0
29 -31 0
28 -31 0
31 30 32 0
-31 -32 0
-30 -32 0
32 0
